Route #1: 1 28 14 11 22 26 16 9 37 1 
Route #2: 1 10 15 21 32 6 34 13 1 
Route #3: 1 1 3 31 19 30 2 35 1 
Route #4: 1 20 7 17 29 12 5 27 25 1 
Route #5: 1 23 18 33 4 8 24 1 
Route #6: 1 36 1 

Cost 1155.02
Time 0.2230


 * Another infos *

 Iterations: 38 Time: 0.2230 sec - 0.0037 min - 0.0001 horas
0.0000 h 0.0037 min
Problem dimension: 38
